c Random generated cnf formula, satisfiable: true
p cnf 10 50
2 8 1 0
3 10 6 0
8 2 -6 0
-5 -6 -4 0
3 8 -10 0
7 -8 -2 0
-2 -10 -8 0
-2 1 8 0
-2 6 5 0
2 -6 10 0
7 -4 9 0
6 -10 5 0
-6 -1 2 0
-6 2 7 0
10 6 -2 0
10 -7 -4 0
8 7 3 0
-3 5 -2 0
-7 1 -5 0
1 -4 -5 0
2 -10 1 0
6 5 -4 0
-2 8 10 0
-4 -8 9 0
2 1 -4 0
-7 -5 1 0
-10 -1 4 0
8 2 9 0
-8 7 5 0
4 -10 -3 0
10 7 -8 0
10 -2 9 0
-2 1 -5 0
-8 -1 -6 0
1 -2 -9 0
-4 7 1 0
5 -10 -7 0
-2 8 -7 0
4 10 8 0
1 -8 9 0
8 6 -4 0
5 -1 -8 0
-10 9 4 0
-7 4 5 0
2 9 6 0
-6 -8 -1 0
-2 -5 6 0
-10 -9 -3 0
10 4 1 0
7 -4 3 0
